sifdecoder -A pc64.lnx.gfo -st   LINSPANH

 Problem name: LINSPANH

 Double precision version will be formed

 The objective function uses 1 linear group
 
 There are 33 linear equality constraints
 
 There are 81 variables bounded from below and above 
 There are 16 fixed variables
 
 
 File successfully decoded
 CUTEST: tools (double precision version) compiled successfully
 CUTEst: ipopt (double precision version) compiled successfully

******************************************************************************
This program contains Ipopt, a library for large-scale nonlinear optimization.
 Ipopt is released as open source code under the Eclipse Public License (EPL).
         For more information visit http://projects.coin-or.org/Ipopt
******************************************************************************

This is Ipopt version trunk, running with linear solver ma57.

Number of nonzeros in equality constraint Jacobian...:      162
Number of nonzeros in inequality constraint Jacobian.:        0
Number of nonzeros in Lagrangian Hessian.............:        0

Total number of variables............................:       81
                     variables with only lower bounds:        0
                variables with lower and upper bounds:       81
                     variables with only upper bounds:        0
Total number of equality constraints.................:       33
Total number of inequality constraints...............:        0
        inequality constraints with only lower bounds:        0
   inequality constraints with lower and upper bounds:        0
        inequality constraints with only upper bounds:        0

iter    objective    inf_pr   inf_du lg(mu)  ||d||  lg(rg) alpha_du alpha_pr  ls
   0 -7.7000099e+01 6.11e-01 5.22e-01  -1.0 0.00e+00    -  0.00e+00 0.00e+00   0
   1 -7.7000119e+01 4.68e-01 6.18e+02  -1.0 6.58e-01    -  8.59e-01 2.34e-01f  1
   2 -7.7000000e+01 1.48e-01 3.30e+02  -1.0 8.57e+00    -  2.54e-01 6.85e-01f  1
   3 -7.7000031e+01 9.23e-02 1.36e+03  -1.0 4.30e+00    -  8.60e-01 3.74e-01f  1
   4 -7.7000000e+01 4.46e-03 1.26e+03  -1.0 2.33e+01    -  5.60e-01 9.52e-01f  1
Reallocating memory for MA57: lfact (1570)
   5 -7.7000012e+01 1.14e-03 8.22e+02  -1.0 4.58e+01    -  6.65e-01 7.44e-01f  1
   6 -7.7000002e+01 8.03e-13 1.61e+03  -1.0 1.01e+02    -  7.46e-01 1.00e+00f  1
   7 -7.7000005e+01 1.11e-12 2.64e-12  -1.0 1.95e+02    -  1.00e+00 1.00e+00f  1
   8 -7.7000005e+01 7.67e-13 3.20e-12  -3.8 2.30e-01    -  1.00e+00 1.00e+00h  1
   9 -7.7000006e+01 1.30e-12 5.35e-01  -5.7 1.63e+00    -  9.83e-01 1.00e+00h  1
iter    objective    inf_pr   inf_du lg(mu)  ||d||  lg(rg) alpha_du alpha_pr  ls
  10 -7.7000042e+01 1.02e-12 1.19e-15  -5.7 5.42e+01    -  1.00e+00 1.00e+00f  1
Reallocating memory for MA57: lfact (2942)
  11 -7.7000045e+01 2.67e-11 1.92e-02  -8.6 1.02e-01    -  9.49e-01 1.00e+00h  1
  12 -7.7000045e+01 4.41e-13 8.74e-16  -8.6 1.97e+00    -  1.00e+00 1.00e+00h  1

Number of Iterations....: 12

                                   (scaled)                 (unscaled)
Objective...............:  -7.7000045473393612e+01   -7.7000045473393612e+01
Dual infeasibility......:   8.7382121124416484e-16    8.7382121124416484e-16
Constraint violation....:   4.4053649617126212e-13    4.4053649617126212e-13
Complementarity.........:   4.4064257094475374e-09    4.4064257094475374e-09
Overall NLP error.......:   4.4064257094475374e-09    4.4064257094475374e-09


Number of objective function evaluations             = 13
Number of objective gradient evaluations             = 13
Number of equality constraint evaluations            = 13
Number of inequality constraint evaluations          = 0
Number of equality constraint Jacobian evaluations   = 13
Number of inequality constraint Jacobian evaluations = 0
Number of Lagrangian Hessian evaluations             = 12
Total CPU secs in IPOPT (w/o function evaluations)   =      0.015
Total CPU secs in NLP function evaluations           =      0.001

EXIT: Optimal Solution Found.

************************ CUTEst statistics ************************


 Package used            :  IPOPT
 Problem                 :  LINSPANH  
 # variables             =              97
 # constraints           =              33
 # objective functions   =        0.2700000E+02
 # objective gradients   =        0.1400000E+02
 # objective Hessians    =        0.1300000E+02
 # Hessian-vector prdct  =        0.0000000E+00
 # constraints functions =        0.2800000E+02
 # constraints gradients =        0.1500000E+02
 # constraints Hessians  =        0.1300000E+02
 Exit code               =               0
 Final f                 =       -7.7000045473393612D+01
 Bounds feasibility      =        2.1549205030169105D-05
 Set up time             =            0.00 seconds
 Solve time              =            0.09 seconds


******************************************************************

